id: 1081
name: in
group: miplib2010
method: 2

Gurobi 7.0.2 (linux64, Matlab) logging started Tue Mar 27 05:40:33 2018


Gurobi 7.0.2 (linux64) logging started Tue Mar 27 05:40:33 2018

Optimize a model with 1526202 rows, 1449074 columns and 6811639 nonzeros
Coefficient statistics:
  Matrix range     [1e+00, 2e+00]
  Objective range  [1e+00, 1e+00]
  Bounds range     [1e+00, 1e+00]
  RHS range        [1e+00, 2e+00]
Presolve removed 30722 rows and 9574 columns
Presolve time: 2.83s
Presolved: 1495480 rows, 1439500 columns, 6696161 nonzeros

Ordering time: 0.75s

Barrier statistics:
 Dense cols : 1475
 AA' NZ     : 6.298e+06
 Factor NZ  : 6.304e+07 (roughly 1.7 GBytes of memory)
 Factor Ops : 6.529e+10 (roughly 1 second per iteration)
 Threads    : 4

                  Objective                Residual
Iter       Primal          Dual         Primal    Dual     Compl     Time
   0   2.97231142e+03 -7.36826240e+04  1.67e+03 1.84e-03  1.70e-01     8s
   1   2.94666892e+03 -4.90306008e+04  7.08e+02 2.38e-02  6.22e-02    10s
   2   2.90433515e+03 -2.10785466e+04  6.22e+02 1.10e-03  2.60e-02    11s
   3   1.08845153e+03 -5.46689185e+03  3.04e+01 2.11e-12  2.33e-03    13s
   4   6.85656291e+02 -1.74199515e+03  1.19e+01 5.96e-13  8.41e-04    16s
   5   5.04966700e+02 -1.25882700e+03  7.22e+00 4.34e-13  5.70e-04    18s
   6   4.42622122e+02 -6.64547527e+02  5.96e+00 2.39e-13  3.76e-04    20s
   7   3.70320569e+02 -4.37294962e+02  4.66e+00 1.61e-13  2.74e-04    21s
   8   3.31410066e+02 -3.21311394e+02  4.01e+00 1.17e-13  2.21e-04    23s
   9   2.84449513e+02 -1.73559665e+02  3.28e+00 6.53e-14  1.55e-04    25s
  10   2.01490265e+02 -1.06544490e+02  2.12e+00 4.20e-14  9.92e-05    27s
  11   1.84600078e+02 -7.62843113e+01  1.89e+00 3.10e-14  8.23e-05    29s
  12   1.73859038e+02 -5.29041655e+01  1.75e+00 2.28e-14  7.06e-05    30s
  13   1.41089822e+02 -3.87206937e+01  1.31e+00 1.77e-14  5.41e-05    32s
  14   1.32904160e+02 -2.68337096e+01  1.19e+00 1.37e-14  4.73e-05    34s
  15   1.13895802e+02 -2.08630899e+00  9.11e-01 1.18e-14  3.33e-05    37s
  16   1.04997722e+02  8.55554479e+00  7.73e-01 1.04e-14  2.71e-05    39s
  17   9.67638224e+01  2.10342455e+01  6.42e-01 8.33e-15  2.08e-05    41s
  18   8.84889588e+01  2.75577229e+01  5.14e-01 1.55e-14  1.64e-05    42s
  19   8.66715858e+01  3.32084042e+01  4.85e-01 2.18e-14  1.42e-05    44s
  20   7.85677433e+01  3.78678083e+01  3.53e-01 2.85e-14  1.06e-05    45s
  21   7.43450025e+01  4.15677061e+01  2.84e-01 2.89e-14  8.42e-06    47s
  22   7.10328201e+01  4.65122863e+01  2.27e-01 2.44e-14  6.22e-06    49s
  23   6.70608989e+01  5.21309733e+01  1.52e-01 4.96e-14  3.73e-06    52s
  24   6.36040278e+01  5.46241763e+01  8.58e-02 4.39e-14  2.21e-06    54s
  25   6.21396963e+01  5.55389971e+01  5.82e-02 4.72e-14  1.62e-06    56s
  26   6.17764351e+01  5.58805530e+01  5.22e-02 5.38e-14  1.44e-06    57s
  27   6.10693148e+01  5.66683250e+01  4.12e-02 4.44e-14  1.08e-06    59s
  28   6.06665125e+01  5.70346848e+01  3.53e-02 3.03e-14  8.91e-07    60s
  29   5.98422430e+01  5.71504598e+01  2.26e-02 3.95e-14  6.57e-07    62s
  30   5.92982934e+01  5.76029717e+01  1.33e-02 1.93e-13  4.15e-07    64s
  31   5.88646149e+01  5.76675828e+01  7.98e-03 7.92e-14  2.92e-07    66s
  32   5.85325862e+01  5.78325856e+01  4.77e-03 1.82e-13  1.71e-07    68s
  33   5.81590979e+01  5.78889095e+01  1.24e-03 8.47e-14  6.50e-08    69s
  34   5.80090370e+01  5.79934501e+01  4.88e-05 2.75e-13  3.71e-09    72s
  35   5.80000036e+01  5.79999934e+01  1.73e-08 1.83e-13  2.41e-12    73s
  36   5.80000036e+01  5.79999934e+01  1.73e-08 6.71e-09  2.41e-12    76s
  37   5.80000036e+01  5.79999863e+01  7.10e-06 7.15e-06  2.41e-12    78s
  38   5.80000036e+01  5.79999948e+01  7.10e-06 3.54e-06  2.41e-12    81s
  39   5.80000036e+01  5.80000031e+01  7.10e-06 7.49e-06  2.40e-12    83s
  40   5.80000036e+01  5.80000032e+01  7.10e-06 7.49e-06  2.40e-12    86s

Barrier solved model in 40 iterations and 85.54 seconds
Optimal objective 5.80000036e+01

Crossover log...

 1062325 DPushes remaining with DInf 0.0000000e+00                87s
       0 DPushes remaining with DInf 0.0000000e+00                88s

  296408 PPushes remaining with PInf 0.0000000e+00                89s
  205441 PPushes remaining with PInf 0.0000000e+00                90s
   32175 PPushes remaining with PInf 0.0000000e+00                95s
       0 PPushes remaining with PInf 0.0000000e+00               102s

  Push phase complete: Pinf 0.0000000e+00, Dinf 0.0000000e+00    102s

Iteration    Objective       Primal Inf.    Dual Inf.      Time
  329032    5.8000000e+01   0.000000e+00   0.000000e+00    103s
  329032    5.8000000e+01   0.000000e+00   0.000000e+00    104s

Solved in 329032 iterations and 103.99 seconds
Optimal objective  5.800000000e+01
status: OPTIMAL
